ilp_joint_2/output/germination_ilp.lp
Maximize
  0.0193489009696732 Z_72_1_0 + 0.4381249477922552 Z_72_1_1
   + 4.1217831448503439e-04 Z_72_1_2 + 0.00273621343246933 Z_72_1_3
   + 8.2917783966501846e-04 Z_65_1_0 + 0.00241056699289355 Z_65_1_1
   + 0.2514557287590988 Z_65_1_2 + 0.00277073416066664 Z_65_1_3
   + 0.0125875578848231 Z_78_1_0 + 0.2709028207144009 Z_78_1_1
   + 0.00963809981561553 Z_78_1_2 + 0.0658831653159136 Z_78_1_3
   + 0.00258269864747368 Z_90_1_0 + 0.3181659590912593 Z_90_1_1
   + 0.00499672061833362 Z_90_1_2 + 0.0308844211667609 Z_90_1_3 + [
   3.0680481349879923e-04 Z_78_1_0 * Z_90_1_0
   + 3.0680481349879923e-04 Z_78_1_1 * Z_90_1_1
   + 3.0680481349879923e-04 Z_78_1_2 * Z_90_1_2
   + 3.0680481349879923e-04 Z_78_1_3 * Z_90_1_3 ] / 2 
Subject To
 constraint1_721: Z_72_1_0 + Z_72_1_1 + Z_72_1_2 + Z_72_1_3 <= 1
 constraint1_651: Z_65_1_0 + Z_65_1_1 + Z_65_1_2 + Z_65_1_3 <= 1
 constraint1_781: Z_78_1_0 + Z_78_1_1 + Z_78_1_2 + Z_78_1_3 <= 1
 constraint1_901: Z_90_1_0 + Z_90_1_1 + Z_90_1_2 + Z_90_1_3 <= 1
 constraint2_10: <= 1
 constraint2_11: <= 1
 constraint2_12: <= 1
 constraint2_13: <= 1
 constraint2_720: Z_72_1_0 <= 1
 constraint2_721: Z_72_1_1 <= 1
 constraint2_722: Z_72_1_2 <= 1
 constraint2_723: Z_72_1_3 <= 1
 constraint2_650: Z_65_1_0 <= 1
 constraint2_651: Z_65_1_1 <= 1
 constraint2_652: Z_65_1_2 <= 1
 constraint2_653: Z_65_1_3 <= 1
 constraint2_780: Z_78_1_0 <= 1
 constraint2_781: Z_78_1_1 <= 1
 constraint2_782: Z_78_1_2 <= 1
 constraint2_783: Z_78_1_3 <= 1
 constraint2_900: Z_90_1_0 <= 1
 constraint2_901: Z_90_1_1 <= 1
 constraint2_902: Z_90_1_2 <= 1
 constraint2_903: Z_90_1_3 <= 1
Bounds
Binaries
 Z_72_1_0 Z_72_1_1 Z_72_1_2 Z_72_1_3 Z_65_1_0 Z_65_1_1 Z_65_1_2 Z_65_1_3
 Z_78_1_0 Z_78_1_1 Z_78_1_2 Z_78_1_3 Z_90_1_0 Z_90_1_1 Z_90_1_2 Z_90_1_3
End
