ilp_joint_2/output/germination_ilp.mps
NAME germination_srl_ilp
* Max problem is converted into Min one
ROWS
 N  OBJ
 L  constraint1_721
 L  constraint1_651
 L  constraint1_781
 L  constraint1_901
 L  constraint2_10
 L  constraint2_11
 L  constraint2_12
 L  constraint2_13
 L  constraint2_720
 L  constraint2_721
 L  constraint2_722
 L  constraint2_723
 L  constraint2_650
 L  constraint2_651
 L  constraint2_652
 L  constraint2_653
 L  constraint2_780
 L  constraint2_781
 L  constraint2_782
 L  constraint2_783
 L  constraint2_900
 L  constraint2_901
 L  constraint2_902
 L  constraint2_903
COLUMNS
    MARKER    'MARKER'                 'INTORG'
    Z_72_1_0  OBJ       -1.9348900969673233e-02
    Z_72_1_0  constraint1_721  1
    Z_72_1_0  constraint2_720  1
    Z_72_1_1  OBJ       -4.3812494779225525e-01
    Z_72_1_1  constraint1_721  1
    Z_72_1_1  constraint2_721  1
    Z_72_1_2  OBJ       -4.1217831448503439e-04
    Z_72_1_2  constraint1_721  1
    Z_72_1_2  constraint2_722  1
    Z_72_1_3  OBJ       -2.7362134324693268e-03
    Z_72_1_3  constraint1_721  1
    Z_72_1_3  constraint2_723  1
    Z_65_1_0  OBJ       -8.2917783966501846e-04
    Z_65_1_0  constraint1_651  1
    Z_65_1_0  constraint2_650  1
    Z_65_1_1  OBJ       -2.4105669928935480e-03
    Z_65_1_1  constraint1_651  1
    Z_65_1_1  constraint2_651  1
    Z_65_1_2  OBJ       -2.5145572875909877e-01
    Z_65_1_2  constraint1_651  1
    Z_65_1_2  constraint2_652  1
    Z_65_1_3  OBJ       -2.7707341606666353e-03
    Z_65_1_3  constraint1_651  1
    Z_65_1_3  constraint2_653  1
    Z_78_1_0  OBJ       -1.2587557884823131e-02
    Z_78_1_0  constraint1_781  1
    Z_78_1_0  constraint2_780  1
    Z_78_1_1  OBJ       -2.7090282071440092e-01
    Z_78_1_1  constraint1_781  1
    Z_78_1_1  constraint2_781  1
    Z_78_1_2  OBJ       -9.6380998156155306e-03
    Z_78_1_2  constraint1_781  1
    Z_78_1_2  constraint2_782  1
    Z_78_1_3  OBJ       -6.5883165315913650e-02
    Z_78_1_3  constraint1_781  1
    Z_78_1_3  constraint2_783  1
    Z_90_1_0  OBJ       -2.5826986474736802e-03
    Z_90_1_0  constraint1_901  1
    Z_90_1_0  constraint2_900  1
    Z_90_1_1  OBJ       -3.1816595909125933e-01
    Z_90_1_1  constraint1_901  1
    Z_90_1_1  constraint2_901  1
    Z_90_1_2  OBJ       -4.9967206183336166e-03
    Z_90_1_2  constraint1_901  1
    Z_90_1_2  constraint2_902  1
    Z_90_1_3  OBJ       -3.0884421166760913e-02
    Z_90_1_3  constraint1_901  1
    Z_90_1_3  constraint2_903  1
    MARKER    'MARKER'                 'INTEND'
RHS
    RHS1      constraint1_721  1
    RHS1      constraint1_651  1
    RHS1      constraint1_781  1
    RHS1      constraint1_901  1
    RHS1      constraint2_10  1
    RHS1      constraint2_11  1
    RHS1      constraint2_12  1
    RHS1      constraint2_13  1
    RHS1      constraint2_720  1
    RHS1      constraint2_721  1
    RHS1      constraint2_722  1
    RHS1      constraint2_723  1
    RHS1      constraint2_650  1
    RHS1      constraint2_651  1
    RHS1      constraint2_652  1
    RHS1      constraint2_653  1
    RHS1      constraint2_780  1
    RHS1      constraint2_781  1
    RHS1      constraint2_782  1
    RHS1      constraint2_783  1
    RHS1      constraint2_900  1
    RHS1      constraint2_901  1
    RHS1      constraint2_902  1
    RHS1      constraint2_903  1
BOUNDS
 UP BND1      Z_72_1_0  1
 UP BND1      Z_72_1_1  1
 UP BND1      Z_72_1_2  1
 UP BND1      Z_72_1_3  1
 UP BND1      Z_65_1_0  1
 UP BND1      Z_65_1_1  1
 UP BND1      Z_65_1_2  1
 UP BND1      Z_65_1_3  1
 UP BND1      Z_78_1_0  1
 UP BND1      Z_78_1_1  1
 UP BND1      Z_78_1_2  1
 UP BND1      Z_78_1_3  1
 UP BND1      Z_90_1_0  1
 UP BND1      Z_90_1_1  1
 UP BND1      Z_90_1_2  1
 UP BND1      Z_90_1_3  1
QUADOBJ
    Z_78_1_0  Z_90_1_0  -1.5340240674939962e-04
    Z_78_1_1  Z_90_1_1  -1.5340240674939962e-04
    Z_78_1_2  Z_90_1_2  -1.5340240674939962e-04
    Z_78_1_3  Z_90_1_3  -1.5340240674939962e-04
ENDATA
