ilp_joint_2/output/germination_ilp.sol
# Solution for model germination_srl_ilp
# Objective value = 1.2788028587637637e+00
Z_72_1_0 0
Z_72_1_1 1
Z_72_1_2 0
Z_72_1_3 0
Z_65_1_0 0
Z_65_1_1 0
Z_65_1_2 1
Z_65_1_3 0
Z_78_1_0 0
Z_78_1_1 1
Z_78_1_2 0
Z_78_1_3 0
Z_90_1_0 0
Z_90_1_1 1
Z_90_1_2 0
Z_90_1_3 0
